(set-info :smt-lib-version 2.6)
(set-logic QF_UF)
(set-info :source |
CADE ATP System competition. See http://www.cs.miami.edu/~tptp/CASC
 for more information. 

This benchmark was obtained by trying to find a finite model of a first-order 
formula (Albert Oliveras).
|)
(set-info :category "crafted")
(set-info :status sat)
(declare-sort U 0)
(declare-fun c3 () U)
(declare-fun f1 (U U) U)
(declare-fun c2 () U)
(declare-fun f4 (U) U)
(declare-fun c_0 () U)
(declare-fun c_1 () U)
(declare-fun c_2 () U)
(declare-fun c_3 () U)
(assert (let ((?v_1 (f1 c3 c_0))) (let ((?v_0 (f1 ?v_1 c_0)) (?v_2 (f1 c_0 c_0))) (let ((?v_36 (f1 c_0 ?v_2)) (?v_4 (f1 c_0 c_1)) (?v_5 (f1 c_0 c_2)) (?v_6 (f1 c_0 c_3)) (?v_3 (f1 ?v_1 c_1)) (?v_41 (f1 c_1 ?v_2)) (?v_7 (f1 ?v_1 c_2)) (?v_46 (f1 c_2 ?v_2)) (?v_8 (f1 ?v_1 c_3)) (?v_51 (f1 c_3 ?v_2)) (?v_10 (f1 c3 c_1))) (let ((?v_9 (f1 ?v_10 c_0)) (?v_11 (f1 c_1 c_0)) (?v_13 (f1 c_1 c_1))) (let ((?v_38 (f1 c_0 ?v_13)) (?v_14 (f1 c_1 c_2)) (?v_15 (f1 c_1 c_3)) (?v_12 (f1 ?v_10 c_1)) (?v_43 (f1 c_1 ?v_13)) (?v_16 (f1 ?v_10 c_2)) (?v_48 (f1 c_2 ?v_13)) (?v_17 (f1 ?v_10 c_3)) (?v_53 (f1 c_3 ?v_13)) (?v_19 (f1 c3 c_2))) (let ((?v_18 (f1 ?v_19 c_0)) (?v_20 (f1 c_2 c_0)) (?v_22 (f1 c_2 c_1)) (?v_23 (f1 c_2 c_2))) (let ((?v_39 (f1 c_0 ?v_23)) (?v_24 (f1 c_2 c_3)) (?v_21 (f1 ?v_19 c_1)) (?v_44 (f1 c_1 ?v_23)) (?v_25 (f1 ?v_19 c_2)) (?v_49 (f1 c_2 ?v_23)) (?v_26 (f1 ?v_19 c_3)) (?v_54 (f1 c_3 ?v_23)) (?v_28 (f1 c3 c_3))) (let ((?v_27 (f1 ?v_28 c_0)) (?v_29 (f1 c_3 c_0)) (?v_31 (f1 c_3 c_1)) (?v_32 (f1 c_3 c_2)) (?v_33 (f1 c_3 c_3))) (let ((?v_40 (f1 c_0 ?v_33)) (?v_30 (f1 ?v_28 c_1)) (?v_45 (f1 c_1 ?v_33)) (?v_34 (f1 ?v_28 c_2)) (?v_50 (f1 c_2 ?v_33)) (?v_35 (f1 ?v_28 c_3)) (?v_55 (f1 c_3 ?v_33)) (?v_37 (f1 c2 c_0)) (?v_42 (f1 c2 c_1)) (?v_47 (f1 c2 c_2)) (?v_52 (f1 c2 c_3)) (?v_56 (f4 c_0))) (let ((?v_57 (f1 c_0 ?v_56)) (?v_58 (f4 c_1))) (let ((?v_59 (f1 c_1 ?v_58)) (?v_60 (f4 c_2))) (let ((?v_61 (f1 c_2 ?v_60)) (?v_62 (f4 c_3))) (let ((?v_63 (f1 c_3 ?v_62))) (and (distinct c_0 c_1 c_2 c_3) (= (f1 ?v_0 c_0) ?v_36) (= (f1 ?v_0 c_1) (f1 c_0 ?v_4)) (= (f1 ?v_0 c_2) (f1 c_0 ?v_5)) (= (f1 ?v_0 c_3) (f1 c_0 ?v_6)) (= (f1 ?v_3 c_0) ?v_41) (= (f1 ?v_3 c_1) (f1 c_1 ?v_4)) (= (f1 ?v_3 c_2) (f1 c_1 ?v_5)) (= (f1 ?v_3 c_3) (f1 c_1 ?v_6)) (= (f1 ?v_7 c_0) ?v_46) (= (f1 ?v_7 c_1) (f1 c_2 ?v_4)) (= (f1 ?v_7 c_2) (f1 c_2 ?v_5)) (= (f1 ?v_7 c_3) (f1 c_2 ?v_6)) (= (f1 ?v_8 c_0) ?v_51) (= (f1 ?v_8 c_1) (f1 c_3 ?v_4)) (= (f1 ?v_8 c_2) (f1 c_3 ?v_5)) (= (f1 ?v_8 c_3) (f1 c_3 ?v_6)) (= (f1 ?v_9 c_0) (f1 c_0 ?v_11)) (= (f1 ?v_9 c_1) ?v_38) (= (f1 ?v_9 c_2) (f1 c_0 ?v_14)) (= (f1 ?v_9 c_3) (f1 c_0 ?v_15)) (= (f1 ?v_12 c_0) (f1 c_1 ?v_11)) (= (f1 ?v_12 c_1) ?v_43) (= (f1 ?v_12 c_2) (f1 c_1 ?v_14)) (= (f1 ?v_12 c_3) (f1 c_1 ?v_15)) (= (f1 ?v_16 c_0) (f1 c_2 ?v_11)) (= (f1 ?v_16 c_1) ?v_48) (= (f1 ?v_16 c_2) (f1 c_2 ?v_14)) (= (f1 ?v_16 c_3) (f1 c_2 ?v_15)) (= (f1 ?v_17 c_0) (f1 c_3 ?v_11)) (= (f1 ?v_17 c_1) ?v_53) (= (f1 ?v_17 c_2) (f1 c_3 ?v_14)) (= (f1 ?v_17 c_3) (f1 c_3 ?v_15)) (= (f1 ?v_18 c_0) (f1 c_0 ?v_20)) (= (f1 ?v_18 c_1) (f1 c_0 ?v_22)) (= (f1 ?v_18 c_2) ?v_39) (= (f1 ?v_18 c_3) (f1 c_0 ?v_24)) (= (f1 ?v_21 c_0) (f1 c_1 ?v_20)) (= (f1 ?v_21 c_1) (f1 c_1 ?v_22)) (= (f1 ?v_21 c_2) ?v_44) (= (f1 ?v_21 c_3) (f1 c_1 ?v_24)) (= (f1 ?v_25 c_0) (f1 c_2 ?v_20)) (= (f1 ?v_25 c_1) (f1 c_2 ?v_22)) (= (f1 ?v_25 c_2) ?v_49) (= (f1 ?v_25 c_3) (f1 c_2 ?v_24)) (= (f1 ?v_26 c_0) (f1 c_3 ?v_20)) (= (f1 ?v_26 c_1) (f1 c_3 ?v_22)) (= (f1 ?v_26 c_2) ?v_54) (= (f1 ?v_26 c_3) (f1 c_3 ?v_24)) (= (f1 ?v_27 c_0) (f1 c_0 ?v_29)) (= (f1 ?v_27 c_1) (f1 c_0 ?v_31)) (= (f1 ?v_27 c_2) (f1 c_0 ?v_32)) (= (f1 ?v_27 c_3) ?v_40) (= (f1 ?v_30 c_0) (f1 c_1 ?v_29)) (= (f1 ?v_30 c_1) (f1 c_1 ?v_31)) (= (f1 ?v_30 c_2) (f1 c_1 ?v_32)) (= (f1 ?v_30 c_3) ?v_45) (= (f1 ?v_34 c_0) (f1 c_2 ?v_29)) (= (f1 ?v_34 c_1) (f1 c_2 ?v_31)) (= (f1 ?v_34 c_2) (f1 c_2 ?v_32)) (= (f1 ?v_34 c_3) ?v_50) (= (f1 ?v_35 c_0) (f1 c_3 ?v_29)) (= (f1 ?v_35 c_1) (f1 c_3 ?v_31)) (= (f1 ?v_35 c_2) (f1 c_3 ?v_32)) (= (f1 ?v_35 c_3) ?v_55) (= (f1 ?v_37 c_0) ?v_36) (= (f1 ?v_37 c_1) ?v_38) (= (f1 ?v_37 c_2) ?v_39) (= (f1 ?v_37 c_3) ?v_40) (= (f1 ?v_42 c_0) ?v_41) (= (f1 ?v_42 c_1) ?v_43) (= (f1 ?v_42 c_2) ?v_44) (= (f1 ?v_42 c_3) ?v_45) (= (f1 ?v_47 c_0) ?v_46) (= (f1 ?v_47 c_1) ?v_48) (= (f1 ?v_47 c_2) ?v_49) (= (f1 ?v_47 c_3) ?v_50) (= (f1 ?v_52 c_0) ?v_51) (= (f1 ?v_52 c_1) ?v_53) (= (f1 ?v_52 c_2) ?v_54) (= (f1 ?v_52 c_3) ?v_55) (not (= ?v_57 (f1 ?v_56 ?v_57))) (not (= ?v_59 (f1 ?v_58 ?v_59))) (not (= ?v_61 (f1 ?v_60 ?v_61))) (not (= ?v_63 (f1 ?v_62 ?v_63))) (or (= ?v_2 c_0) (= ?v_2 c_1) (= ?v_2 c_2) (= ?v_2 c_3)) (or (= ?v_4 c_0) (= ?v_4 c_1) (= ?v_4 c_2) (= ?v_4 c_3)) (or (= ?v_5 c_0) (= ?v_5 c_1) (= ?v_5 c_2) (= ?v_5 c_3)) (or (= ?v_6 c_0) (= ?v_6 c_1) (= ?v_6 c_2) (= ?v_6 c_3)) (or (= ?v_11 c_0) (= ?v_11 c_1) (= ?v_11 c_2) (= ?v_11 c_3)) (or (= ?v_13 c_0) (= ?v_13 c_1) (= ?v_13 c_2) (= ?v_13 c_3)) (or (= ?v_14 c_0) (= ?v_14 c_1) (= ?v_14 c_2) (= ?v_14 c_3)) (or (= ?v_15 c_0) (= ?v_15 c_1) (= ?v_15 c_2) (= ?v_15 c_3)) (or (= ?v_20 c_0) (= ?v_20 c_1) (= ?v_20 c_2) (= ?v_20 c_3)) (or (= ?v_22 c_0) (= ?v_22 c_1) (= ?v_22 c_2) (= ?v_22 c_3)) (or (= ?v_23 c_0) (= ?v_23 c_1) (= ?v_23 c_2) (= ?v_23 c_3)) (or (= ?v_24 c_0) (= ?v_24 c_1) (= ?v_24 c_2) (= ?v_24 c_3)) (or (= ?v_29 c_0) (= ?v_29 c_1) (= ?v_29 c_2) (= ?v_29 c_3)) (or (= ?v_31 c_0) (= ?v_31 c_1) (= ?v_31 c_2) (= ?v_31 c_3)) (or (= ?v_32 c_0) (= ?v_32 c_1) (= ?v_32 c_2) (= ?v_32 c_3)) (or (= ?v_33 c_0) (= ?v_33 c_1) (= ?v_33 c_2) (= ?v_33 c_3)) (or (= ?v_56 c_0) (= ?v_56 c_1) (= ?v_56 c_2) (= ?v_56 c_3)) (or (= ?v_58 c_0) (= ?v_58 c_1) (= ?v_58 c_2) (= ?v_58 c_3)) (or (= ?v_60 c_0) (= ?v_60 c_1) (= ?v_60 c_2) (= ?v_60 c_3)) (or (= ?v_62 c_0) (= ?v_62 c_1) (= ?v_62 c_2) (= ?v_62 c_3)) (or (= c3 c_0) (= c3 c_1) (= c3 c_2) (= c3 c_3)) (or (= c2 c_0) (= c2 c_1) (= c2 c_2) (= c2 c_3)))))))))))))))))
(check-sat)
(exit)
